Route #1: 1 43 41 42 22 2 6 55 49 23 1 
Route #2: 1 33 46 4 28 1 
Route #3: 1 1 30 45 57 15 20 37 1 
Route #4: 1 56 51 12 53 35 7 26 1 
Route #5: 1 16 3 44 50 39 40 1 
Route #6: 1 17 8 34 29 5 48 1 
Route #7: 1 24 18 25 9 32 1 
Route #8: 1 21 47 27 19 11 1 
Route #9: 1 52 54 14 58 31 1 
Route #10: 1 59 36 13 38 10 1 

Cost 1216.44
Time 0.8768


 * Another infos *

 Iterations: 60 Time: 0.8768 sec - 0.0146 min - 0.0002 horas
0.0000 h 0.0146 min
Problem dimension: 60
